34 34
21
3 3 31 31
3 4 31 27
3 5 6 0
3 6 3 21
3 7 3 27
3 8 6 26
3 9 13 25
3 10 6 16
3 11 6 5
3 12 0 22
3 13 31 14
3 14 31 0
3 21 3 0
3 22 0 0
3 25 13 0
3 34 28 0
4 4 9 0
4 5 9 29
4 11 9 4
4 14 9 15
12 34 16 0
